(set-option :print-success false)
(set-logic QF_UF)
(declare-sort x19 0)
(declare-sort x128 0)
(declare-fun x98 () x128)
(declare-fun x58 () x128)
(declare-fun x90 (x128 x128) x128)
(declare-fun x29 () x128)
(declare-fun x120 (x128 x128) x128)
(declare-fun x23 () x128)
(declare-fun x119 () x128)
(assert (or (or (= x23 (x90 x23 x23)) (or (or (= x119 (x90 x119 x119)) (= (x90 x98 x98) x98)) (= x29 (x90 x29 x29)))) (= x58 (x90 x58 x58))))
(assert (let ((x137 (x90 x29 x98)) (x60 (x90 x23 x29)) (x37 (x90 x98 x29)) (x151 (x90 x23 x98)) (x136 (x90 x23 x58)) (x43 (x90 x119 x58)) (x127 (x90 x98 x58)) (x106 (x90 x29 x29)) (x116 (x90 x58 x119)) (x8 (x90 x29 x119)) (x55 (x90 x119 x23)) (x158 (x90 x29 x23)) (x79 (x90 x23 x23)) (x15 (x90 x58 x98)) (x86 (x90 x23 x119)) (x110 (x90 x58 x23)) (x156 (x90 x29 x58)) (x1 (x90 x119 x119)) (x48 (x90 x98 x119)) (x100 (x90 x98 x23)) (x83 (x90 x58 x29)) (x63 (x90 x119 x29)) (x71 (x90 x98 x98)) (x44 (x90 x119 x98)) (x35 (x90 x58 x58))) (and (and (and (and (and (and (and (and (or (or (or (= x1 x29) (or (= x1 x98) (= x1 x119))) (= x23 x1)) (= x1 x58)) (or (= x44 x58) (or (= x23 x44) (or (= x44 x29) (or (= x44 x119) (= x98 x44)))))) (or (or (or (= x63 x29) (or (= x63 x98) (= x119 x63))) (= x23 x63)) (= x58 x63))) (or (or (or (= x29 x55) (or (= x55 x119) (= x55 x98))) (= x55 x23)) (= x55 x58))) (or (= x43 x58) (or (or (= x29 x43) (or (= x98 x43) (= x119 x43))) (= x43 x23)))) (and (or (= x127 x58) (or (= x23 x127) (or (or (= x127 x98) (= x127 x119)) (= x29 x127)))) (and (and (or (or (= x23 x37) (or (= x29 x37) (or (= x37 x98) (= x119 x37)))) (= x58 x37)) (and (or (= x58 x71) (or (= x23 x71) (or (= x29 x71) (or (= x71 x119) (= x71 x98))))) (or (= x48 x58) (or (= x48 x23) (or (= x48 x29) (or (= x48 x119) (= x98 x48))))))) (or (or (= x23 x100) (or (= x29 x100) (or (= x98 x100) (= x119 x100)))) (= x100 x58))))) (and (or (or (or (= x29 x156) (or (= x119 x156) (= x156 x98))) (= x156 x23)) (= x58 x156)) (and (or (= x158 x58) (or (= x23 x158) (or (= x158 x29) (or (= x98 x158) (= x119 x158))))) (and (or (or (= x23 x106) (or (or (= x106 x98) (= x119 x106)) (= x106 x29))) (= x106 x58)) (and (or (or (or (or (= x137 x98) (= x137 x119)) (= x29 x137)) (= x137 x23)) (= x58 x137)) (or (= x58 x8) (or (or (= x8 x29) (or (= x98 x8) (= x8 x119))) (= x23 x8)))))))) (and (and (and (and (or (or (= x23 x151) (or (= x29 x151) (or (= x151 x119) (= x98 x151)))) (= x151 x58)) (or (or (= x23 x86) (or (= x86 x29) (or (= x86 x119) (= x86 x98)))) (= x58 x86))) (or (= x60 x58) (or (= x60 x23) (or (or (= x60 x98) (= x119 x60)) (= x29 x60))))) (or (= x79 x58) (or (or (or (= x79 x98) (= x79 x119)) (= x29 x79)) (= x79 x23)))) (or (= x136 x58) (or (or (= x29 x136) (or (= x136 x119) (= x98 x136))) (= x23 x136))))) (and (and (and (or (or (or (= x29 x83) (or (= x98 x83) (= x119 x83))) (= x23 x83)) (= x58 x83)) (and (or (or (= x23 x116) (or (= x116 x29) (or (= x116 x119) (= x116 x98)))) (= x58 x116)) (or (or (= x23 x15) (or (or (= x15 x119) (= x98 x15)) (= x29 x15))) (= x58 x15)))) (or (= x110 x58) (or (= x23 x110) (or (= x110 x29) (or (= x98 x110) (= x119 x110)))))) (or (= x35 x58) (or (or (or (= x98 x35) (= x35 x119)) (= x35 x29)) (= x23 x35)))))))
(assert (let ((x63 (x90 x98 x98)) (x43 (x90 x23 x23)) (x55 (x90 x29 x29)) (x48 (x90 x58 x58)) (x44 (x90 x119 x119))) (let ((x1 (not (= x119 x44))) (x127 (not (= x48 x58))) (x37 (not (= x29 x55))) (x71 (not (= x63 x98))) (x100 (not (= x23 x43)))) (or (and (and (and (not (= x58 x43)) (and (not (= x55 x58)) (and (not (= x63 x58)) (not (= x58 x44))))) x127) (and x127 (and (and (not (= x29 (x90 x58 x29))) (and (not (= (x90 x58 x119) x119)) (not (= x98 (x90 x58 x98))))) (not (= x23 (x90 x58 x23)))))) (or (and (and (not (= x23 x48)) (and (and (and (not (= x44 x23)) (not (= x23 x63))) (not (= x23 x55))) x100)) (and (and x100 (and (not (= x29 (x90 x23 x29))) (and (not (= (x90 x23 x98) x98)) (not (= x119 (x90 x23 x119)))))) (not (= (x90 x23 x58) x58)))) (or (or (and (and (not (= x58 (x90 x119 x58))) (and (and (and x1 (not (= x98 (x90 x119 x98)))) (not (= x29 (x90 x119 x29)))) (not (= (x90 x119 x23) x23)))) (and (not (= x119 x48)) (and (not (= x43 x119)) (and (and (not (= x63 x119)) x1) (not (= x55 x119)))))) (and (and (not (= x98 x48)) (and (not (= x98 x43)) (and (and x71 (not (= x98 x44))) (not (= x98 x55))))) (and (and (and (not (= x29 (x90 x98 x29))) (and (not (= x119 (x90 x98 x119))) x71)) (not (= x23 (x90 x98 x23)))) (not (= (x90 x98 x58) x58))))) (and (and (and (and x37 (and (not (= x29 x63)) (not (= x29 x44)))) (not (= x29 x43))) (not (= x29 x48))) (and (not (= x58 (x90 x29 x58))) (and (not (= x23 (x90 x29 x23))) (and (and (not (= (x90 x29 x98) x98)) (not (= x119 (x90 x29 x119)))) x37))))))))))
(assert (let ((x48 (x90 x58 x58)) (x63 (x90 x98 x98)) (x44 (x90 x119 x119)) (x55 (x90 x29 x29)) (x43 (x90 x23 x23))) (let ((x106 (= x55 x29)) (x37 (= x63 x98)) (x156 (= x48 x58)) (x1 (= x44 x119)) (x158 (= x23 x43))) (let ((x71 (and (and (and (not (= x119 x55)) (and (not (= x119 x63)) (not x1))) (not (= x119 x43))) (not (= x48 x119)))) (x8 (and (not (= x23 x48)) (and (and (and (not (= x63 x23)) (not (= x23 x44))) (not (= x55 x23))) (not x158)))) (x137 (and (and (not (= x58 x43)) (and (not (= x55 x58)) (and (not (= x63 x58)) (not (= x44 x58))))) (not x156))) (x100 (and (and (not (= x43 x98)) (and (not (= x98 x55)) (and (not (= x44 x98)) (not x37)))) (not (= x48 x98)))) (x127 (and (not (= x48 x29)) (and (not (= x43 x29)) (and (and (not (= x63 x29)) (not (= x44 x29))) (not x106)))))) (or (or (or (and x137 (= x23 (x90 x23 x58))) (or (or (and x127 (= (x90 x23 x29) x23)) (or (and (= x23 (x90 x23 x98)) x100) (and (= x23 (x90 x23 x119)) x71))) (and x8 x158))) (or (or (or (and x137 (= (x90 x119 x58) x119)) (or (or (and x127 (= (x90 x119 x29) x119)) (or (and (= x119 (x90 x119 x98)) x100) (and x1 x71))) (and (= x119 (x90 x119 x23)) x8))) (or (and x137 (= (x90 x98 x58) x98)) (or (and x8 (= (x90 x98 x23) x98)) (or (and (= x98 (x90 x98 x29)) x127) (or (and x37 x100) (and (= (x90 x98 x119) x98) x71)))))) (or (and x137 (= (x90 x29 x58) x29)) (or (or (or (and (= x29 (x90 x29 x98)) x100) (and (= (x90 x29 x119) x29) x71)) (and x127 x106)) (and (= x29 (x90 x29 x23)) x8))))) (or (and x137 x156) (or (or (and x127 (= x58 (x90 x58 x29))) (or (and (= (x90 x58 x98) x58) x100) (and x71 (= x58 (x90 x58 x119))))) (and (= (x90 x58 x23) x58) x8))))))))
(assert (let ((x15 (x90 x98 x58)) (x97 (x90 x58 x98)) (x40 (x90 x58 x23)) (x114 (x90 x58 x58)) (x43 (x90 x119 x23)) (x48 (x90 x119 x58)) (x54 (x90 x29 x29)) (x100 (x90 x29 x119)) (x63 (x90 x119 x98)) (x136 (x90 x98 x29)) (x44 (x90 x119 x119)) (x116 (x90 x98 x23)) (x55 (x90 x119 x29)) (x127 (x90 x23 x119)) (x78 (x90 x23 x23)) (x96 (x90 x23 x58)) (x14 (x90 x23 x29)) (x140 (x90 x58 x29)) (x148 (x90 x29 x58)) (x37 (x90 x98 x119)) (x8 (x90 x58 x119)) (x49 (x90 x23 x98)) (x79 (x90 x98 x98)) (x101 (x90 x29 x23)) (x35 (x90 x29 x98))) (let ((x74 (= x23 x79)) (x93 (= x58 x101)) (x64 (= x23 x54)) (x31 (= x58 x63)) (x86 (= x63 x119)) (x9 (= x8 x58)) (x108 (= x15 x29)) (x153 (= x119 x136)) (x4 (= x100 x29)) (x143 (= x49 x119)) (x18 (= x15 x23)) (x28 (= x98 x114)) (x59 (= x119 x96)) (x62 (= x148 x29)) (x149 (= x127 x98)) (x61 (= x23 x136)) (x118 (= x23 x101)) (x147 (= x23 x140)) (x84 (= x58 x78)) (x11 (= x29 x96)) (x135 (= x98 x78)) (x85 (= x98 x54)) (x70 (= x58 x116)) (x109 (= x23 x148)) (x88 (= x136 x98)) (x80 (= x101 x98)) (x139 (= x98 x40)) (x159 (= x98 x15)) (x53 (= x116 x29)) (x110 (= x79 x98)) (x5 (= x43 x119)) (x51 (= x148 x119)) (x92 (= x29 x79)) (x10 (= x116 x23)) (x42 (= x49 x23)) (x129 (= x48 x23)) (x82 (= x35 x58)) (x155 (= x119 x14)) (x24 (= x55 x119)) (x65 (= x98 x140)) (x32 (= x101 x119)) (x67 (= x96 x98)) (x1 (= x119 x44)) (x94 (= x97 x98)) (x36 (= x96 x58)) (x152 (= x48 x98)) (x89 (= x119 x114)) (x66 (= x119 x100)) (x13 (= x23 x35)) (x50 (= x97 x58)) (x141 (= x136 x58)) (x3 (= x98 x148)) (x20 (= x29 x55)) (x26 (= x54 x58)) (x21 (= x29 x14)) (x81 (= x78 x29)) (x25 (= x23 x78)) (x156 (= x37 x119)) (x41 (= x23 x43)) (x111 (= x101 x29)) (x151 (= x79 x119)) (x27 (= x140 x119)) (x12 (= x136 x29)) (x73 (= x8 x98)) (x133 (= x35 x119)) (x157 (= x63 x29)) (x117 (= x119 x78)) (x130 (= x49 x29)) (x137 (= x44 x29)) (x113 (= x15 x58)) (x124 (= x55 x58)) (x112 (= x23 x114)) (x106 (= x23 x44)) (x144 (= x43 x29)) (x46 (= x119 x8)) (x131 (= x127 x23)) (x123 (= x29 x97)) (x146 (= x40 x119)) (x83 (= x98 x63)) (x125 (= x119 x116)) (x22 (= x49 x98)) (x17 (= x23 x14)) (x154 (= x29 x37)) (x99 (= x29 x127)) (x39 (= x97 x23)) (x107 (= x14 x58)) (x158 (= x58 x44)) (x47 (= x119 x97)) (x6 (= x58 x127)) (x121 (= x40 x29)) (x134 (= x58 x148)) (x30 (= x23 x8)) (x145 (= x98 x35)) (x16 (= x29 x48)) (x126 (= x100 x98)) (x95 (= x54 x119)) (x77 (= x48 x58)) (x72 (= x55 x98)) (x122 (= x100 x23)) (x71 (= x98 x44)) (x68 (= x15 x119)) (x34 (= x55 x23)) (x7 (= x58 x37)) (x102 (= x119 x48)) (x105 (= x54 x29)) (x132 (= x58 x49)) (x87 (= x98 x14)) (x33 (= x43 x98)) (x91 (= x40 x23)) (x142 (= x58 x114)) (x52 (= x58 x40)) (x69 (= x114 x29)) (x45 (= x23 x37)) (x56 (= x29 x8)) (x57 (= x29 x140)) (x138 (= x23 x96)) (x60 (= x98 x37)) (x75 (= x35 x29)) (x150 (= x79 x58)) (x38 (= x58 x140)) (x115 (= x100 x58)) (x76 (= x119 x127)) (x104 (= x43 x58)) (x2 (= x116 x98)) (x103 (= x63 x23))) (and (and (and (and (and (and (and (or (or (or x122 (or x45 x106)) x131) x30) (or (or (or x34 (or x103 x106)) x41) x129)) (and (and (or (or x144 (or (or x157 x137) x20)) x16) (or (or x99 (or (or x137 x154) x4)) x56)) (and (and (or x152 (or x33 (or (or x71 x83) x72))) (or (or (or (or x71 x60) x126) x149) x73)) (and (or (or x76 (or x66 (or x156 x1))) x46) (or (or x5 (or (or x86 x1) x24)) x102))))) (and (or (or (or x124 (or x158 x31)) x104) x77) (or (or x6 (or (or x7 x158) x115)) x9))) (and (and (or (or x70 (or x141 (or x150 x7))) x113) (or (or (or (or x31 x150) x82) x132) x50)) (and (and (and (or (or x130 (or (or x92 x157) x75)) x123) (or (or (or (or x92 x154) x12) x53) x108)) (and (and (or (or (or x133 (or x86 x151)) x143) x47) (or (or (or x153 (or x156 x151)) x125) x68)) (and (or x159 (or x2 (or x88 (or x110 x60)))) (or x94 (or (or x145 (or x110 x83)) x22))))) (and (or x18 (or x10 (or (or x45 x74) x61))) (or x39 (or (or (or x74 x103) x13) x42)))))) (and (and (or (or (or x26 (or x141 x124)) x107) x38) (or (or x93 (or (or x82 x115) x26)) x134)) (and (and (and (and (or (or x87 (or (or x72 x88) x85)) x65) (or (or (or x85 (or x126 x145)) x80) x3)) (and (or x27 (or (or (or x24 x153) x95) x155)) (or (or (or (or x133 x66) x95) x32) x51))) (and (or x62 (or (or (or x75 x4) x105) x111)) (or (or x21 (or (or x20 x12) x105)) x57))) (and (or (or (or (or x34 x61) x64) x17) x147) (or (or (or x64 (or x122 x13)) x118) x109))))) (and (and (or (or (or x107 (or x132 x6)) x84) x36) (or x52 (or x84 (or (or x104 x70) x93)))) (and (and (and (or x11 (or x81 (or x21 (or x130 x99)))) (or (or (or x111 (or x144 x53)) x81) x121)) (and (and (or x67 (or x135 (or (or x149 x22) x87))) (or (or x135 (or x80 (or x2 x33))) x139)) (and (or x59 (or x117 (or x155 (or x76 x143)))) (or x146 (or (or x32 (or x5 x125)) x117))))) (and (or (or (or x17 (or x42 x131)) x25) x138) (or x91 (or x25 (or x118 (or x41 x10)))))))) (and (and (or x142 (or (or (or x113 x77) x134) x36)) (or x142 (or x52 (or (or x9 x50) x38)))) (and (and (or (or (or (or x30 x39) x147) x91) x112) (or x112 (or x138 (or (or x129 x18) x109)))) (and (and (or x69 (or (or (or x108 x16) x62) x11)) (or (or (or (or x123 x56) x57) x121) x69)) (and (and (or x89 (or (or (or x102 x68) x51) x59)) (or x89 (or (or x27 (or x47 x46)) x146))) (and (or (or (or (or x159 x152) x3) x67) x28) (or (or x139 (or x65 (or x73 x94))) x28))))))))))
(assert (let ((x79 (x90 x23 x23)) (x100 (x90 x23 x98)) (x43 (x90 x58 x119)) (x48 (x90 x119 x98)) (x55 (x90 x23 x119)) (x116 (x90 x119 x58)) (x60 (x90 x29 x23)) (x151 (x90 x98 x23)) (x37 (x90 x29 x98)) (x63 (x90 x29 x119)) (x127 (x90 x58 x98)) (x71 (x90 x98 x98)) (x156 (x90 x58 x29)) (x8 (x90 x119 x29)) (x106 (x90 x29 x29)) (x110 (x90 x23 x58)) (x44 (x90 x98 x119)) (x1 (x90 x119 x119)) (x136 (x90 x58 x23)) (x158 (x90 x23 x29)) (x35 (x90 x58 x58)) (x83 (x90 x29 x58)) (x137 (x90 x98 x29)) (x15 (x90 x98 x58)) (x86 (x90 x119 x23))) (let ((x66 (= x29 x37)) (x20 (= x110 x23)) (x101 (= x100 x23)) (x88 (= x79 x23)) (x45 (= x98 x71)) (x31 (= x119 x8)) (x150 (= x98 x137)) (x145 (= x98 x151)) (x157 (= x98 x44)) (x34 (= x35 x58)) (x122 (= x156 x58)) (x54 (= x60 x29)) (x13 (= x58 x136)) (x14 (= x58 x43)) (x75 (= x29 x83)) (x4 (= x98 x15)) (x95 (= x55 x23)) (x140 (= x116 x119)) (x7 (= x29 x63)) (x12 (= x127 x58)) (x49 (= x119 x1)) (x72 (= x158 x23)) (x126 (= x86 x119)) (x92 (= x48 x119)) (x24 (= x106 x29))) (let ((x105 (or x34 (or (or x75 (or x140 x4)) x20))) (x74 (not x45)) (x133 (or x122 (or x72 (or (or x31 x150) x24)))) (x153 (not x24)) (x148 (or x13 (or (or x54 (or x145 x126)) x88))) (x61 (not x34)) (x97 (not x49)) (x85 (not x88)) (x103 (or x12 (or (or (or x45 x92) x66) x101))) (x154 (or (or (or (or x157 x49) x7) x95) x14))) (and (or (or (and (and (or (= x79 x79) (not (= x23 (x90 x23 x79)))) (and (and (or (= x86 x55) (not (= x23 (x90 x119 x86)))) (or (not (= x23 (x90 x98 x151))) (= x100 x151))) (or (= x158 x60) (not (= (x90 x29 x60) x23))))) (or (= x136 x110) (not (= x23 (x90 x58 x136))))) (or (or (and (and (or (not (= (x90 x23 x55) x119)) (= x55 x86)) (and (or (= x8 x63) (not (= (x90 x29 x63) x119))) (and (or (not (= x119 (x90 x98 x44))) (= x44 x48)) (or (not (= (x90 x119 x1) x119)) (= x1 x1))))) (or (= x43 x116) (not (= (x90 x58 x43) x119)))) (and (and (and (or (= x37 x137) (not (= (x90 x29 x37) x98))) (and (or (not (= (x90 x119 x48) x98)) (= x48 x44)) (or (not (= x98 (x90 x98 x71))) (= x71 x71)))) (or (not (= x98 (x90 x23 x100))) (= x151 x100))) (or (= x15 x127) (not (= (x90 x58 x127) x98))))) (and (or (not (= x29 (x90 x58 x156))) (= x156 x83)) (and (or (= x60 x158) (not (= x29 (x90 x23 x158)))) (and (and (or (not (= (x90 x98 x137) x29)) (= x37 x137)) (or (= x8 x63) (not (= x29 (x90 x119 x8))))) (or (not (= x29 (x90 x29 x106))) (= x106 x106))))))) (and (and (and (and (or (= x15 x127) (not (= x58 (x90 x98 x15)))) (or (not (= x58 (x90 x119 x116))) (= x116 x43))) (or (not (= (x90 x29 x83) x58)) (= x156 x83))) (or (= x136 x110) (not (= x58 (x90 x23 x110))))) (or (not (= (x90 x58 x35) x58)) (= x35 x35)))) (and (and (and (and (and (and (or (not x95) (or (not (= x86 x23)) x148)) (or (not x101) (or (not (= x23 x151)) x148))) (or (not x72) (or (not (= x60 x23)) x148))) (or (or x148 x85) x85)) (or (not x20) (or x148 (not (= x23 x136))))) (and (and (or (not x75) (or x133 (not (= x156 x29)))) (and (and (and (or (not x66) (or x133 (not (= x29 x137)))) (or (or x133 (not (= x8 x29))) (not x7))) (or (or x133 x153) x153)) (or (not x54) (or (not (= x29 x158)) x133)))) (and (and (or (or x154 (not (= x43 x119))) (not x140)) (and (and (and (or (or (not (= x119 x44)) x154) (not x92)) (or x97 (or x154 x97))) (or (or (not (= x63 x119)) x154) (not x31))) (or (or x154 (not (= x55 x119))) (not x126)))) (and (or (or x103 (not (= x127 x98))) (not x4)) (and (and (or (not x150) (or (not (= x37 x98)) x103)) (and (or (or x103 (not (= x48 x98))) (not x157)) (or (or x74 x103) x74))) (or (not x145) (or x103 (not (= x100 x98))))))))) (and (and (and (or (not x122) (or (not (= x58 x83)) x105)) (and (or (not x14) (or (not (= x116 x58)) x105)) (or (or (not (= x15 x58)) x105) (not x12)))) (or (not x13) (or x105 (not (= x110 x58))))) (or x61 (or x105 x61)))))))))
(assert (or (and (not (= (x90 (x90 x58 x58) x58) x58)) (and (not (= (x90 (x90 x23 x58) x23) x58)) (and (not (= x58 (x90 (x90 x29 x58) x29))) (and (not (= x58 (x90 (x90 x119 x58) x119))) (not (= x58 (x90 (x90 x98 x58) x98))))))) (or (or (or (and (not (= (x90 (x90 x58 x98) x58) x98)) (and (not (= x98 (x90 (x90 x23 x98) x23))) (and (and (not (= (x90 (x90 x98 x98) x98) x98)) (not (= (x90 (x90 x119 x98) x119) x98))) (not (= (x90 (x90 x29 x98) x29) x98))))) (and (not (= x119 (x90 (x90 x58 x119) x58))) (and (not (= x119 (x90 (x90 x23 x119) x23))) (and (and (not (= x119 (x90 (x90 x119 x119) x119))) (not (= x119 (x90 (x90 x98 x119) x98)))) (not (= (x90 (x90 x29 x119) x29) x119)))))) (and (and (and (not (= (x90 (x90 x29 x29) x29) x29)) (and (not (= (x90 (x90 x98 x29) x98) x29)) (not (= x29 (x90 (x90 x119 x29) x119))))) (not (= x29 (x90 (x90 x23 x29) x23)))) (not (= (x90 (x90 x58 x29) x58) x29)))) (and (not (= x23 (x90 (x90 x58 x23) x58))) (and (and (and (not (= x23 (x90 (x90 x119 x23) x119))) (not (= (x90 (x90 x98 x23) x98) x23))) (not (= x23 (x90 (x90 x29 x23) x29)))) (not (= x23 (x90 (x90 x23 x23) x23))))))))
(assert (and (and (and (and (or (or (= x23 (x90 x119 (x90 x119 x23))) (or (or (= x119 (x90 x119 (x90 x119 x119))) (= (x90 x119 (x90 x119 x98)) x98)) (= x29 (x90 x119 (x90 x119 x29))))) (= (x90 x119 (x90 x119 x58)) x58)) (or (or (or (or (= (x90 x98 (x90 x98 x119)) x119) (= (x90 x98 (x90 x98 x98)) x98)) (= x29 (x90 x98 (x90 x98 x29)))) (= (x90 x98 (x90 x98 x23)) x23)) (= (x90 x98 (x90 x98 x58)) x58))) (or (or (= (x90 x29 (x90 x29 x23)) x23) (or (or (= x98 (x90 x29 (x90 x29 x98))) (= x119 (x90 x29 (x90 x29 x119)))) (= (x90 x29 (x90 x29 x29)) x29))) (= x58 (x90 x29 (x90 x29 x58))))) (or (= x58 (x90 x23 (x90 x23 x58))) (or (or (= (x90 x23 (x90 x23 x29)) x29) (or (= x119 (x90 x23 (x90 x23 x119))) (= x98 (x90 x23 (x90 x23 x98))))) (= (x90 x23 (x90 x23 x23)) x23)))) (or (or (= (x90 x58 (x90 x58 x23)) x23) (or (= (x90 x58 (x90 x58 x29)) x29) (or (= x98 (x90 x58 (x90 x58 x98))) (= (x90 x58 (x90 x58 x119)) x119)))) (= (x90 x58 (x90 x58 x58)) x58))))
(assert (and (and (= (x90 x98 x98) x23) (and (= x119 (x90 x98 x23)) (= x29 (x90 x23 x119)))) (= x58 (x90 x29 x119))))
(assert (or (or (and (and (and (not (= (x90 (x90 x23 x29) x23) x29)) (and (not (= (x90 (x90 x23 x119) x23) x119)) (not (= (x90 (x90 x23 x98) x23) x98)))) (not (= (x90 (x90 x23 x23) x23) x23))) (not (= x58 (x90 (x90 x23 x58) x23)))) (or (and (not (= x58 (x90 (x90 x29 x58) x29))) (and (and (not (= x29 (x90 (x90 x29 x29) x29))) (and (not (= x98 (x90 (x90 x29 x98) x29))) (not (= (x90 (x90 x29 x119) x29) x119)))) (not (= (x90 (x90 x29 x23) x29) x23)))) (or (and (not (= (x90 (x90 x98 x58) x98) x58)) (and (not (= x23 (x90 (x90 x98 x23) x98))) (and (and (not (= (x90 (x90 x98 x119) x98) x119)) (not (= x98 (x90 (x90 x98 x98) x98)))) (not (= x29 (x90 (x90 x98 x29) x98)))))) (and (and (not (= (x90 (x90 x119 x23) x119) x23)) (and (and (not (= (x90 (x90 x119 x98) x119) x98)) (not (= x119 (x90 (x90 x119 x119) x119)))) (not (= (x90 (x90 x119 x29) x119) x29)))) (not (= x58 (x90 (x90 x119 x58) x119))))))) (and (and (and (and (not (= (x90 (x90 x58 x98) x58) x98)) (not (= x119 (x90 (x90 x58 x119) x58)))) (not (= (x90 (x90 x58 x29) x58) x29))) (not (= (x90 (x90 x58 x23) x58) x23))) (not (= x58 (x90 (x90 x58 x58) x58))))))
(assert (let ((x154 (x90 x119 x98)) (x12 (x90 x58 x29)) (x153 (x90 x98 x29)) (x157 (x90 x98 x119)) (x133 (x90 x98 x98)) (x92 (x90 x119 x29)) (x95 (x90 x29 x98)) (x124 (x90 x23 x58)) (x74 (x90 x23 x119)) (x145 (x90 x23 x98)) (x149 (x90 x58 x58)) (x14 (x90 x29 x29)) (x20 (x90 x29 x58)) (x54 (x90 x98 x58)) (x101 (x90 x58 x98)) (x49 (x90 x119 x119)) (x141 (x90 x58 x23)) (x103 (x90 x119 x23)) (x4 (x90 x29 x23)) (x126 (x90 x98 x23)) (x31 (x90 x58 x119)) (x75 (x90 x23 x29)) (x45 (x90 x29 x119)) (x7 (x90 x119 x58)) (x115 (x90 x23 x23))) (let ((x32 (= x98 x141)) (x99 (= x29 x14)) (x84 (= x133 x23)) (x156 (= x4 x119)) (x60 (= x119 x7)) (x48 (= x119 x92)) (x140 (= x98 x14)) (x116 (= x119 x12)) (x139 (= x31 x23)) (x148 (= x98 x45)) (x43 (= x119 x45)) (x57 (= x49 x58)) (x118 (= x12 x29)) (x87 (= x49 x29)) (x70 (= x157 x23)) (x144 (= x145 x29)) (x91 (= x58 x103)) (x59 (= x23 x145)) (x158 (= x75 x119)) (x125 (= x20 x98)) (x11 (= x92 x58)) (x41 (= x29 x101)) (x122 (= x103 x98)) (x6 (= x29 x141)) (x18 (= x126 x58)) (x76 (= x7 x98)) (x24 (= x133 x98)) (x104 (= x49 x23)) (x100 (= x119 x14)) (x138 (= x4 x58)) (x102 (= x23 x14)) (x61 (= x75 x98)) (x68 (= x23 x74)) (x96 (= x154 x29)) (x112 (= x115 x58)) (x38 (= x58 x101)) (x110 (= x124 x119)) (x33 (= x133 x29)) (x79 (= x101 x119)) (x17 (= x29 x7)) (x64 (= x4 x98)) (x72 (= x98 x92)) (x8 (= x119 x103)) (x15 (= x20 x119)) (x81 (= x4 x29)) (x137 (= x119 x145)) (x51 (= x103 x23)) (x127 (= x74 x119)) (x47 (= x23 x92)) (x30 (= x58 x153)) (x117 (= x124 x98)) (x9 (= x58 x31)) (x13 (= x145 x98)) (x147 (= x74 x58)) (x136 (= x54 x119)) (x106 (= x119 x126)) (x131 (= x115 x29)) (x1 (= x49 x119)) (x134 (= x58 x141)) (x86 (= x119 x115)) (x67 (= x20 x23)) (x71 (= x119 x95)) (x16 (= x58 x154)) (x146 (= x23 x153)) (x35 (= x149 x119)) (x159 (= x23 x54)) (x129 (= x58 x145)) (x143 (= x98 x101)) (x5 (= x98 x12)) (x44 (= x119 x157)) (x53 (= x29 x126)) (x83 (= x141 x119)) (x42 (= x29 x31)) (x89 (= x23 x126)) (x109 (= x58 x75)) (x21 (= x29 x103)) (x66 (= x154 x98)) (x27 (= x95 x23)) (x52 (= x58 x54)) (x37 (= x153 x119)) (x62 (= x45 x58)) (x121 (= x58 x157)) (x73 (= x75 x23)) (x82 (= x98 x115)) (x25 (= x29 x20)) (x77 (= x58 x12)) (x94 (= x23 x4)) (x151 (= x119 x31)) (x85 (= x153 x98)) (x36 (= x124 x58)) (x69 (= x95 x58)) (x132 (= x124 x29)) (x56 (= x124 x23)) (x114 (= x23 x7)) (x93 (= x23 x154)) (x107 (= x149 x29)) (x46 (= x23 x45)) (x111 (= x75 x29)) (x2 (= x45 x29)) (x130 (= x74 x29)) (x150 (= x98 x157)) (x34 (= x98 x126)) (x135 (= x95 x29)) (x50 (= x58 x7)) (x63 (= x119 x154)) (x22 (= x149 x98)) (x80 (= x92 x29)) (x88 (= x95 x98)) (x55 (= x133 x119)) (x105 (= x98 x74)) (x152 (= x101 x23)) (x39 (= x58 x14)) (x10 (= x29 x54)) (x65 (= x23 x115)) (x123 (= x23 x149)) (x26 (= x98 x31)) (x40 (= x153 x29)) (x108 (= x133 x58)) (x113 (= x20 x58)) (x155 (= x54 x98)) (x97 (= x98 x49)) (x3 (= x23 x12)) (x28 (= x141 x23)) (x78 (= x157 x29)) (x142 (= x58 x149))) (or (or (or (and (and (and (or x6 (not x132)) (and (or (not x131) x131) (and (or (not x111) x81) (and (or (not x130) x21) (or x53 (not x144)))))) (and (and (and (and (and (and (or (not x33) x33) (or x96 (not x78))) (or x135 (not x40))) (or (not x53) x144)) (or (not x10) x41)) (and (or (not x17) x42) (and (or x130 (not x21)) (and (and (or x78 (not x96)) (or x87 (not x87))) (or x2 (not x80)))))) (and (or x118 (not x25)) (and (or x111 (not x81)) (and (or (not x99) x99) (and (or (not x135) x40) (or x80 (not x2)))))))) (and (and (and (and (or x17 (not x42)) (or (not x41) x10)) (or (not x118) x25)) (or x132 (not x6))) (or x107 (not x107)))) (or (and (and (and (or x110 (not x83)) (and (or x15 (not x116)) (and (or x60 (not x151)) (or x136 (not x79))))) (or x35 (not x35))) (and (and (and (or (not x86) x86) (and (or (not x158) x156) (and (or x106 (not x137)) (or x8 (not x127))))) (or x83 (not x110))) (and (and (and (or x158 (not x156)) (and (or (not x100) x100) (and (or (not x71) x37) (or x48 (not x43))))) (or (not x15) x116)) (and (and (and (or x127 (not x8)) (and (and (or (not x1) x1) (or (not x63) x44)) (or x43 (not x48)))) (or (not x60) x151)) (and (and (and (and (or x55 (not x55)) (or x63 (not x44))) (or (not x37) x71)) (or x137 (not x106))) (or x79 (not x136))))))) (and (and (and (and (and (and (and (and (or (not x24) x24) (or x66 (not x150))) (or (not x85) x88)) (or x13 (not x34))) (or (not x155) x143)) (and (and (and (and (or x97 (not x97)) (or x150 (not x66))) (or x148 (not x72))) (or x105 (not x122))) (or (not x76) x26))) (and (and (or (not x64) x61) (and (or (not x140) x140) (and (or (not x148) x72) (or (not x88) x85)))) (or x5 (not x125)))) (and (and (and (and (or x122 (not x105)) (or x34 (not x13))) (or (not x61) x64)) (or (not x82) x82)) (or (not x117) x32))) (and (or x22 (not x22)) (and (or (not x32) x117) (and (or (not x5) x125) (and (or x155 (not x143)) (or x76 (not x26))))))))) (and (and (and (and (and (or x114 (not x139)) (or (not x152) x159)) (or x67 (not x3))) (or (not x28) x56)) (or (not x123) x123)) (and (and (and (and (and (or x102 (not x102)) (and (or (not x27) x146) (or x47 (not x46)))) (or (not x94) x73)) (or (not x67) x3)) (and (and (or (not x114) x139) (and (or x68 (not x51)) (and (or (not x47) x46) (and (or x104 (not x104)) (or (not x93) x70))))) (and (or (not x159) x152) (and (or (not x89) x59) (and (and (or x84 (not x84)) (or (not x70) x93)) (or x27 (not x146))))))) (and (and (or x65 (not x65)) (and (or (not x73) x94) (and (or (not x68) x51) (or (not x59) x89)))) (or (not x56) x28))))) (and (and (and (and (and (and (and (or (not x11) x62) (and (or x57 (not x57)) (or x121 (not x16)))) (or x147 (not x91))) (or x9 (not x50))) (and (and (and (or (not x30) x69) (and (or x16 (not x121)) (or (not x108) x108))) (or (not x18) x129)) (or (not x52) x38))) (and (or x77 (not x113)) (and (and (and (or x30 (not x69)) (or x11 (not x62))) (or x39 (not x39))) (or (not x138) x109)))) (and (and (and (or x138 (not x109)) (and (or x18 (not x129)) (or x91 (not x147)))) (or x112 (not x112))) (or x134 (not x36)))) (and (or x142 (not x142)) (and (and (or (not x77) x113) (and (or (not x38) x52) (or (not x9) x50))) (or x36 (not x134)))))))))
(assert (let ((x31 (x90 x58 x119)) (x157 (x90 x98 x119)) (x12 (x90 x58 x29)) (x20 (x90 x29 x58)) (x14 (x90 x29 x29)) (x103 (x90 x119 x23)) (x95 (x90 x29 x98)) (x49 (x90 x119 x119)) (x92 (x90 x119 x29)) (x126 (x90 x98 x23)) (x115 (x90 x23 x23)) (x54 (x90 x98 x58)) (x45 (x90 x29 x119)) (x153 (x90 x98 x29)) (x7 (x90 x119 x58)) (x154 (x90 x119 x98)) (x74 (x90 x23 x119)) (x141 (x90 x58 x23)) (x4 (x90 x29 x23)) (x145 (x90 x23 x98)) (x133 (x90 x98 x98)) (x101 (x90 x58 x98)) (x124 (x90 x23 x58)) (x75 (x90 x23 x29)) (x149 (x90 x58 x58))) (let ((x33 (= x133 x29)) (x57 (= x49 x58)) (x79 (= x101 x119)) (x135 (= x29 x95)) (x109 (= x75 x58)) (x129 (= x145 x58)) (x16 (= x154 x58)) (x9 (= x58 x31)) (x17 (= x29 x7)) (x80 (= x92 x29)) (x96 (= x154 x29)) (x22 (= x98 x149)) (x140 (= x14 x98)) (x24 (= x133 x98)) (x131 (= x115 x29)) (x102 (= x23 x14)) (x71 (= x95 x119)) (x30 (= x153 x58)) (x68 (= x74 x23)) (x11 (= x58 x92)) (x52 (= x54 x58)) (x13 (= x98 x145)) (x67 (= x23 x20)) (x144 (= x145 x29)) (x142 (= x58 x149)) (x94 (= x23 x4)) (x112 (= x115 x58)) (x100 (= x119 x14)) (x41 (= x101 x29)) (x38 (= x101 x58)) (x28 (= x141 x23)) (x42 (= x29 x31)) (x127 (= x74 x119)) (x78 (= x157 x29)) (x26 (= x98 x31)) (x64 (= x4 x98)) (x159 (= x23 x54)) (x83 (= x141 x119)) (x139 (= x23 x31)) (x118 (= x12 x29)) (x121 (= x58 x157)) (x39 (= x58 x14)) (x111 (= x29 x75)) (x107 (= x29 x149)) (x147 (= x74 x58)) (x44 (= x157 x119)) (x122 (= x98 x103)) (x36 (= x124 x58)) (x50 (= x7 x58)) (x34 (= x126 x98)) (x99 (= x29 x14)) (x40 (= x153 x29)) (x148 (= x98 x45)) (x51 (= x103 x23)) (x125 (= x98 x20)) (x60 (= x7 x119)) (x61 (= x98 x75)) (x132 (= x29 x124)) (x47 (= x23 x92)) (x87 (= x29 x49)) (x10 (= x29 x54)) (x88 (= x98 x95)) (x89 (= x126 x23)) (x43 (= x119 x45)) (x48 (= x119 x92)) (x137 (= x145 x119)) (x146 (= x23 x153)) (x134 (= x141 x58)) (x151 (= x119 x31)) (x65 (= x23 x115)) (x117 (= x124 x98)) (x77 (= x58 x12)) (x91 (= x103 x58)) (x106 (= x126 x119)) (x76 (= x98 x7)) (x53 (= x126 x29)) (x72 (= x92 x98)) (x3 (= x23 x12)) (x81 (= x4 x29)) (x5 (= x12 x98)) (x63 (= x154 x119)) (x85 (= x153 x98)) (x15 (= x119 x20)) (x136 (= x54 x119)) (x155 (= x98 x54)) (x55 (= x133 x119)) (x25 (= x20 x29)) (x35 (= x119 x149)) (x1 (= x49 x119)) (x62 (= x45 x58)) (x93 (= x23 x154)) (x84 (= x133 x23)) (x114 (= x23 x7)) (x56 (= x124 x23)) (x70 (= x23 x157)) (x37 (= x119 x153)) (x150 (= x98 x157)) (x32 (= x141 x98)) (x18 (= x58 x126)) (x2 (= x45 x29)) (x97 (= x49 x98)) (x108 (= x58 x133)) (x110 (= x119 x124)) (x113 (= x58 x20)) (x156 (= x119 x4)) (x82 (= x115 x98)) (x116 (= x119 x12)) (x73 (= x23 x75)) (x66 (= x98 x154)) (x130 (= x74 x29)) (x138 (= x58 x4)) (x123 (= x23 x149)) (x104 (= x49 x23)) (x27 (= x23 x95)) (x69 (= x95 x58)) (x8 (= x103 x119)) (x86 (= x119 x115)) (x21 (= x29 x103)) (x158 (= x75 x119)) (x143 (= x98 x101)) (x46 (= x45 x23)) (x105 (= x98 x74)) (x6 (= x29 x141)) (x59 (= x145 x23)) (x152 (= x101 x23))) (and (and (or (or (and x123 x123) (or (or (or (and x152 x159) (and x139 x114)) (and x3 x67)) (and x28 x56))) (or (or (or (or (or (or (and x146 x27) (or (and x93 x70) (and x84 x84))) (and x59 x89)) (and x159 x152)) (or (or (or (or (and x104 x104) (and x70 x93)) (and x47 x46)) (and x68 x51)) (and x139 x114))) (or (or (or (and x102 x102) (or (and x47 x46) (and x146 x27))) (and x94 x73)) (and x3 x67))) (or (and x28 x56) (or (and x65 x65) (or (or (and x89 x59) (and x68 x51)) (and x73 x94)))))) (and (and (or (or (or (or (or (or (and x105 x122) (and x13 x34)) (and x61 x64)) (and x82 x82)) (and x32 x117)) (or (or (or (or (or (and x85 x88) (or (and x24 x24) (and x66 x150))) (and x13 x34)) (and x155 x143)) (or (or (or (or (and x150 x66) (and x97 x97)) (and x148 x72)) (and x122 x105)) (and x26 x76))) (or (or (and x61 x64) (or (or (and x148 x72) (and x85 x88)) (and x140 x140))) (and x125 x5)))) (or (and x22 x22) (or (and x32 x117) (or (or (and x143 x155) (and x26 x76)) (and x125 x5))))) (or (or (and x35 x35) (or (and x83 x110) (or (or (and x60 x151) (and x136 x79)) (and x15 x116)))) (or (or (and x83 x110) (or (and x86 x86) (or (and x158 x156) (or (and x137 x106) (and x8 x127))))) (or (or (or (and x60 x151) (or (or (and x48 x43) (or (and x44 x63) (and x1 x1))) (and x127 x8))) (or (and x136 x79) (or (and x106 x137) (or (or (and x44 x63) (and x55 x55)) (and x71 x37))))) (or (or (or (and x100 x100) (or (and x48 x43) (and x71 x37))) (and x156 x158)) (and x15 x116)))))) (or (or (or (and x6 x132) (or (and x131 x131) (or (or (and x144 x53) (and x21 x130)) (and x111 x81)))) (or (or (or (or (or (or (and x96 x78) (and x87 x87)) (and x80 x2)) (and x21 x130)) (and x42 x17)) (or (and x10 x41) (or (and x53 x144) (or (and x40 x135) (or (and x33 x33) (and x96 x78)))))) (or (and x25 x118) (or (or (or (and x40 x135) (and x2 x80)) (and x99 x99)) (and x81 x111))))) (or (and x107 x107) (or (or (or (and x17 x42) (and x41 x10)) (and x25 x118)) (and x6 x132)))))) (or (or (or (or (or (or (or (or (and x121 x16) (and x108 x108)) (and x69 x30)) (and x18 x129)) (and x38 x52)) (or (and x50 x9) (or (and x147 x91) (or (or (and x121 x16) (and x57 x57)) (and x11 x62))))) (or (and x77 x113) (or (and x138 x109) (or (or (and x11 x62) (and x69 x30)) (and x39 x39))))) (or (or (or (and x138 x109) (or (and x91 x147) (and x129 x18))) (and x112 x112)) (and x134 x36))) (or (and x142 x142) (or (and x134 x36) (or (or (and x9 x50) (and x52 x38)) (and x113 x77)))))))))
(assert (or (and (and (not (= (x90 x23 (x90 x58 x23)) x58)) (and (and (not (= (x90 x119 (x90 x58 x119)) x58)) (not (= (x90 x98 (x90 x58 x98)) x58))) (not (= x58 (x90 x29 (x90 x58 x29)))))) (not (= x58 (x90 x58 (x90 x58 x58))))) (or (or (and (not (= x29 (x90 x58 (x90 x29 x58)))) (and (not (= x29 (x90 x23 (x90 x29 x23)))) (and (not (= x29 (x90 x29 (x90 x29 x29)))) (and (not (= (x90 x98 (x90 x29 x98)) x29)) (not (= x29 (x90 x119 (x90 x29 x119)))))))) (or (and (and (and (and (not (= x98 (x90 x98 (x90 x98 x98)))) (not (= (x90 x119 (x90 x98 x119)) x98))) (not (= (x90 x29 (x90 x98 x29)) x98))) (not (= (x90 x23 (x90 x98 x23)) x98))) (not (= (x90 x58 (x90 x98 x58)) x98))) (and (not (= (x90 x58 (x90 x119 x58)) x119)) (and (not (= x119 (x90 x23 (x90 x119 x23)))) (and (and (not (= (x90 x98 (x90 x119 x98)) x119)) (not (= x119 (x90 x119 (x90 x119 x119))))) (not (= (x90 x29 (x90 x119 x29)) x119))))))) (and (not (= (x90 x58 (x90 x23 x58)) x23)) (and (and (not (= x23 (x90 x29 (x90 x23 x29)))) (and (not (= (x90 x98 (x90 x23 x98)) x23)) (not (= (x90 x119 (x90 x23 x119)) x23)))) (not (= x23 (x90 x23 (x90 x23 x23)))))))))
(assert (not (and (and (= x98 (x90 x58 x23)) (and (= x29 (x90 x58 x29)) (and (= (x90 x58 x98) x58) (and (and (= x23 (x90 x23 x58)) (and (and (and (and (= x29 (x90 x23 x119)) (and (= (x90 x29 x58) x98) (and (= (x90 x29 x23) x23) (and (and (and (= (x90 x29 x119) x58) (and (= x29 (x90 x98 x58)) (and (= x119 (x90 x98 x23)) (and (and (= x23 (x90 x98 x98)) (and (= (x90 x98 x119) x98) (and (= (x90 x119 x58) x58) (and (= (x90 x119 x23) x29) (and (= (x90 x119 x29) x23) (and (= x98 (x90 x119 x98)) (= (x90 x119 x119) x119))))))) (= (x90 x98 x29) x58))))) (= x29 (x90 x29 x98))) (= x119 (x90 x29 x29)))))) (= x119 (x90 x23 x98))) (= (x90 x23 x29) x98)) (= x58 (x90 x23 x23)))) (= (x90 x58 x119) x23))))) (= x119 (x90 x58 x58)))))
(assert (let ((x1 (x90 x119 x119)) (x158 (x90 x23 x29)) (x100 (x90 x29 x29)) (x35 (x90 x58 x58)) (x137 (x90 x23 x98)) (x106 (x90 x98 x23)) (x55 (x90 x98 x98)) (x44 (x90 x98 x119)) (x156 (x90 x29 x23)) (x43 (x90 x29 x119)) (x86 (x90 x23 x23)) (x60 (x90 x119 x58)) (x71 (x90 x29 x98)) (x110 (x90 x23 x58)) (x127 (x90 x23 x119)) (x79 (x90 x58 x98)) (x83 (x90 x58 x23)) (x8 (x90 x119 x23)) (x63 (x90 x119 x98)) (x37 (x90 x98 x29)) (x136 (x90 x98 x58)) (x151 (x90 x58 x119)) (x15 (x90 x29 x58)) (x116 (x90 x58 x29)) (x48 (x90 x119 x29))) (and (and (and (or (or (or (not (= x100 x100)) (or (not (= x48 x43)) (not (= x71 x37)))) (not (= x156 x158))) (not (= x116 x15))) (and (or (not (= x151 x60)) (or (not (= x8 x127)) (or (or (not (= x1 x1)) (not (= x44 x63))) (not (= x48 x43))))) (or (or (not (= x106 x137)) (or (or (not (= x55 x55)) (not (= x44 x63))) (not (= x37 x71)))) (not (= x79 x136))))) (or (or (or (or (not (= x8 x127)) (not (= x137 x106))) (not (= x158 x156))) (not (= x86 x86))) (not (= x83 x110)))) (or (not (= x35 x35)) (or (or (not (= x116 x15)) (or (not (= x136 x79)) (not (= x151 x60)))) (not (= x83 x110)))))))
(assert (let ((x35 (x90 x58 x58)) (x63 (x90 x29 x119)) (x100 (x90 x23 x98)) (x15 (x90 x98 x58)) (x60 (x90 x29 x23)) (x151 (x90 x98 x23)) (x55 (x90 x23 x119)) (x79 (x90 x23 x23)) (x8 (x90 x119 x29)) (x48 (x90 x119 x98)) (x83 (x90 x29 x58)) (x136 (x90 x58 x23)) (x158 (x90 x23 x29)) (x127 (x90 x58 x98)) (x44 (x90 x98 x119)) (x137 (x90 x98 x29)) (x110 (x90 x23 x58)) (x71 (x90 x98 x98)) (x106 (x90 x29 x29)) (x86 (x90 x119 x23)) (x37 (x90 x29 x98)) (x156 (x90 x58 x29)) (x1 (x90 x119 x119)) (x116 (x90 x119 x58)) (x43 (x90 x58 x119))) (and (and (and (and (not (= x35 x156)) (and (not (= x156 x136)) (and (not (= x35 x127)) (and (and (not (= x156 x127)) (and (and (and (not (= x156 x43)) (not (= x43 x127))) (not (= x43 x136))) (not (= x35 x43)))) (not (= x127 x136)))))) (not (= x136 x35))) (and (and (and (not (= x83 x60)) (and (and (not (= x106 x60)) (and (and (not (= x60 x37)) (and (and (not (= x63 x83)) (and (and (not (= x37 x63)) (not (= x63 x106))) (not (= x60 x63)))) (not (= x106 x37)))) (not (= x83 x37)))) (not (= x83 x106)))) (and (and (not (= x151 x15)) (and (not (= x15 x137)) (and (and (and (and (not (= x137 x71)) (and (and (not (= x44 x151)) (and (not (= x44 x137)) (not (= x71 x44)))) (not (= x44 x15)))) (not (= x151 x71))) (not (= x71 x15))) (not (= x137 x151))))) (and (and (not (= x8 x116)) (and (and (not (= x116 x48)) (and (not (= x48 x86)) (and (not (= x8 x48)) (and (and (not (= x86 x1)) (and (not (= x1 x8)) (not (= x48 x1)))) (not (= x1 x116)))))) (not (= x8 x86)))) (not (= x86 x116))))) (and (not (= x79 x110)) (and (and (and (and (not (= x100 x79)) (and (and (not (= x110 x55)) (and (not (= x55 x79)) (and (not (= x55 x100)) (not (= x158 x55))))) (not (= x100 x158)))) (not (= x110 x100))) (not (= x158 x79))) (not (= x110 x158)))))) (and (and (and (and (not (= x158 x156)) (and (and (and (not (= x156 x137)) (and (and (and (not (= x156 x8)) (and (not (= x8 x158)) (and (not (= x8 x106)) (not (= x8 x137))))) (not (= x106 x137))) (not (= x158 x137)))) (not (= x106 x158))) (not (= x156 x106)))) (and (and (and (and (not (= x100 x37)) (and (and (and (and (and (not (= x100 x48)) (and (not (= x37 x48)) (not (= x71 x48)))) (not (= x127 x48))) (not (= x71 x37))) (not (= x100 x71))) (not (= x127 x71)))) (not (= x37 x127))) (not (= x100 x127))) (and (not (= x55 x43)) (and (and (and (and (and (and (and (not (= x1 x55)) (and (not (= x44 x1)) (not (= x1 x63)))) (not (= x1 x43))) (not (= x63 x44))) (not (= x55 x44))) (not (= x43 x44))) (not (= x55 x63))) (not (= x43 x63)))))) (and (and (not (= x136 x60)) (and (and (and (and (and (not (= x136 x86)) (and (and (not (= x60 x86)) (not (= x86 x151))) (not (= x79 x86)))) (not (= x60 x151))) (not (= x151 x79))) (not (= x151 x136))) (not (= x79 x60)))) (not (= x79 x136)))) (and (and (not (= x83 x35)) (and (and (not (= x15 x35)) (and (and (not (= x15 x83)) (and (and (not (= x110 x116)) (and (not (= x83 x116)) (not (= x116 x15)))) (not (= x35 x116)))) (not (= x15 x110)))) (not (= x110 x83)))) (not (= x110 x35)))))))
(assert (let ((x48 (x90 x98 x29)) (x158 (x90 x23 x98)) (x37 (x90 x29 x98)) (x60 (x90 x98 x58)) (x127 (x90 x119 x23)) (x110 (x90 x58 x23)) (x35 (not (= x58 (x90 x58 x58)))) (x63 (x90 x98 x119)) (x137 (x90 x29 x23)) (x156 (x90 x23 x29)) (x100 (not (= x29 (x90 x29 x29)))) (x106 (x90 x23 x119)) (x86 (not (= x23 (x90 x23 x23)))) (x15 (x90 x58 x98)) (x136 (x90 x23 x58)) (x151 (x90 x119 x58)) (x43 (x90 x119 x29)) (x44 (x90 x119 x98)) (x83 (x90 x58 x29)) (x71 (x90 x29 x119)) (x55 (not (= (x90 x98 x98) x98))) (x79 (x90 x29 x58)) (x8 (x90 x98 x23)) (x116 (x90 x58 x119)) (x1 (not (= (x90 x119 x119) x119)))) (or (and (and (and (not (= x23 x110)) (and (not (= x29 x83)) (and (not (= x15 x98)) (not (= x119 x116))))) x35) (and x35 (and (and (and (not (= x151 x119)) (not (= x98 x60))) (not (= x79 x29))) (not (= x136 x23))))) (or (and (and (not (= x136 x58)) (and x86 (and (not (= x29 x156)) (and (not (= x106 x119)) (not (= x98 x158)))))) (and (and x86 (and (and (not (= x98 x8)) (not (= x127 x119))) (not (= x137 x29)))) (not (= x58 x110)))) (or (and (and (and (and x100 (and (not (= x71 x119)) (not (= x37 x98)))) (not (= x23 x137))) (not (= x58 x79))) (and (and (not (= x23 x156)) (and x100 (and (not (= x119 x43)) (not (= x98 x48))))) (not (= x83 x58)))) (or (and (and (not (= x58 x116)) (and (not (= x106 x23)) (and (and (not (= x63 x98)) x1) (not (= x71 x29))))) (and (and (not (= x23 x127)) (and (and (not (= x98 x44)) x1) (not (= x43 x29)))) (not (= x58 x151)))) (and (and (not (= x58 x60)) (and (and (not (= x48 x29)) (and x55 (not (= x63 x119)))) (not (= x8 x23)))) (and (not (= x58 x15)) (and (not (= x158 x23)) (and (not (= x29 x37)) (and x55 (not (= x44 x119)))))))))))))
(assert (and (and (and (and (not (= x98 x58)) (and (not (= x98 x23)) (and (not (= x98 x29)) (and (not (= x119 x58)) (and (not (= x23 x119)) (and (not (= x98 x119)) (not (= x119 x29)))))))) (not (= x29 x23))) (not (= x29 x58))) (not (= x58 x23))))
(assert (let ((x55 (x90 x23 x23)) (x43 (x90 x58 x58)) (x63 (x90 x29 x29)) (x44 (x90 x98 x98)) (x1 (x90 x119 x119))) (or (and (not (= x58 x43)) (and (not (= x55 x58)) (and (and (not (= x1 x58)) (not (= x58 x44))) (not (= x58 x63))))) (or (or (and (not (= x29 x43)) (and (and (and (not (= x29 x1)) (not (= x44 x29))) (not (= x29 x63))) (not (= x29 x55)))) (or (and (not (= x43 x98)) (and (and (not (= x63 x98)) (and (not (= x44 x98)) (not (= x98 x1)))) (not (= x55 x98)))) (and (and (and (not (= x119 x63)) (and (not (= x119 x1)) (not (= x44 x119)))) (not (= x55 x119))) (not (= x119 x43))))) (and (not (= x23 x43)) (and (not (= x55 x23)) (and (not (= x23 x63)) (and (not (= x1 x23)) (not (= x23 x44))))))))))
(check-sat)
(exit)
